p edge 21 132
e 1 3
e 1 7
e 1 12
e 1 3
e 1 7
e 1 12
e 2 12
e 2 19
e 2 3
e 2 5
e 2 10
e 2 20
e 2 3
e 2 5
e 2 10
e 2 12
e 2 19
e 2 20
e 3 7
e 3 16
e 3 18
e 3 7
e 3 16
e 3 18
e 4 17
e 4 5
e 4 6
e 4 15
e 4 5
e 4 6
e 4 15
e 4 17
e 5 11
e 5 18
e 5 6
e 5 10
e 5 20
e 5 6
e 5 10
e 5 11
e 5 18
e 5 20
e 6 8
e 6 10
e 6 15
e 6 11
e 6 17
e 6 8
e 6 10
e 6 11
e 6 15
e 6 17
e 7 9
e 7 17
e 7 13
e 7 9
e 7 13
e 7 17
e 8 10
e 8 15
e 8 9
e 8 9
e 8 10
e 8 15
e 9 13
e 9 17
e 9 14
e 9 19
e 9 13
e 9 14
e 9 17
e 9 19
e 10 15
e 10 11
e 10 12
e 10 13
e 10 20
e 10 11
e 10 12
e 10 13
e 10 15
e 10 20
e 11 18
e 11 20
e 11 21
e 11 12
e 11 13
e 11 17
e 11 12
e 11 13
e 11 17
e 11 18
e 11 20
e 11 21
e 12 19
e 12 13
e 12 13
e 12 19
e 13 14
e 13 18
e 13 14
e 13 18
e 14 18
e 14 19
e 14 18
e 14 19
e 15 16
e 15 17
e 15 18
e 15 19
e 15 16
e 15 17
e 15 18
e 15 19
e 16 20
e 16 17
e 16 18
e 16 19
e 16 21
e 16 17
e 16 18
e 16 19
e 16 20
e 16 21
e 17 18
e 17 19
e 17 18
e 17 19
e 18 19
e 18 19
e 20 21
e 20 21
